
        $ From http://www.csplib.org/Problems/prob009/data/helmut.pdf
        $ Problem number 22
        $ Sequence length : 24
        language ESSENCE' 1.0
        letting sizemaster be 120
        letting sizes be sequence(3,4,5,6,8,9,10,12,13,14,15,16,17,19,20,23,25,32,33,34,40,41,46,47)
        